#Total component number
param pI := 8;

#Time horizon
param pT := 30;

#Number of Scenarios
param NUMSCEN := 100;

#Probablity of each Scenario. Equally distributed
param prob := 0.01;

#Extended time horizon
param pT_ex := 70;

#Starting time
param ps := 2;

#Number of individuals. R=T+2
param pR := 32;

#Setup cost
param pd := 5;

param pCPR := 
1 1
2 1
3 1
4 1
5 1
6 1
7 1
8 1
;

param pCCR := 
1 11.4
2 9.1
3 8.0
4 11.1
5 14.2
6 7.4
7 9.8
8 14.6
;

param pKesi := 
1 1
2 0
3 0
4 0
5 0
6 0
7 0
8 0
;

param w_shape := 
1 5.7
2 6.7
3 5.6
4 5.4
5 5.5
6 4.9
7 6.7
8 4.8
;

param w_scale := 
1 7.3
2 4.2
3 3.2
4 2.9
5 2.0
6 4.6
7 6.4
8 1.9
;

param x := 
1 1
2 0
3 0
4 0
5 0
6 0
7 0
8 0
;

#pLT is two-dimensional [i,r]=[component, individual]
#[i,*] means all data in row i.

param pLT := 
[1,*]
1  0    2  7    3  7    4  5    5  5    6  8    7  7    8  6    9  8    10 6    
11 5    12 7    13 5    14 8    15 7    16 8    17 7    18 8    19 7    20 4    
21 6    22 5    23 7    24 7    25 7    26 7    27 8    28 6    29 8    30 3    
31 4    32 5    

[2,*]
1  2    2  4    3  3    4  3    5  4    6  4    7  3    8  4    9  3    10 3    
11 4    12 3    13 4    14 4    15 4    16 4    17 4    18 4    19 2    20 3    
21 3    22 4    23 4    24 4    25 4    26 4    27 3    28 4    29 2    30 2    
31 3    32 3    

[3,*]
1  1    2  2    3  2    4  3    5  3    6  2    7  3    8  3    9  2    10 3    
11 2    12 3    13 3    14 3    15 3    16 3    17 3    18 2    19 2    20 2    
21 3    22 3    23 3    24 3    25 3    26 2    27 3    28 1    29 1    30 2    
31 2    32 3    

[4,*]
1  1    2  2    3  3    4  3    5  2    6  3    7  2    8  2    9  3    10 2    
11 3    12 2    13 3    14 3    15 3    16 2    17 1    18 2    19 2    20 2    
21 3    22 2    23 2    24 3    25 2    26 3    27 1    28 1    29 1    30 2    
31 3    32 3    

[5,*]
1  1    2  2    3  2    4  1    5  2    6  1    7  1    8  2    9  1    10 2    
11 1    12 2    13 2    14 2    15 1    16 1    17 1    18 1    19 1    20 2    
21 2    22 1    23 2    24 1    25 2    26 1    27 1    28 1    29 1    30 2    
31 2    32 2    

[6,*]
1  3    2  4    3  4    4  5    5  4    6  3    7  5    8  3    9  5    10 4    
11 5    12 5    13 5    14 4    15 2    16 4    17 3    18 4    19 5    20 4    
21 4    22 5    23 4    24 5    25 2    26 2    27 3    28 3    29 4    30 5    
31 4    32 2    

[7,*]
1  4    2  6    3  7    4  6    5  5    6  6    7  5    8  7    9  6    10 7    
11 6    12 7    13 6    14 4    15 5    16 5    17 6    18 6    19 6    20 6    
21 7    22 5    23 7    24 3    25 3    26 4    27 5    28 6    29 7    30 6    
31 4    32 4    

[8,*]
1  1    2  2    3  1    4  1    5  2    6  1    7  2    8  1    9  2    10 2    
11 2    12 1    13 1    14 1    15 1    16 1    17 2    18 1    19 1    20 2    
21 1    22 2    23 1    24 1    25 1    26 1    27 2    28 2    29 1    30 1    
31 1    32 1    
;